31750
14 17 9 12 4 16 -1 250 500 100 250 250 150 
8 4 16 20 7 18 12 5 15 6 19 10 -1 100 250 100 100 100 50 250 250 100 25 100 75 
2
1
10 -1 40 
10 -1 40 
10 -1 40 
10 -1 40 
1 -1 40 
2 -1 40 
3 -1 40 
13 -1 40 
10 1 2 3 -1 15 10 10 5 
13 3 16 -1 10 5 25 
16 -1 40 
16 -1 40 
16 -1 40 
16 -1 40 
16 -1 40 
16 19 -1 25 15 
19 -1 40 
19 -1 40 
19 6 11 -1 5 25 10 
2
2 -1 40 
2 1 -1 10 30 
1 11 -1 20 15 
